c FILE			: graph_small.gr
c No. of vertices	: 10
c No. of directed edges	: 20
c Max. weight		: 100
c Min. weight		: 0
c A directed arc from u to v of weight w
c is represented below as ' a  u  v  w '
p sp 10 20
a 1 3 52
a 1 3 23
a 1 3 33
a 1 6 44
a 1 7 4
a 2 4 31
a 2 1 80
a 2 4 6
a 3 7 16
a 3 4 63
a 4 1 23
a 4 9 94
a 4 1 51
a 6 8 30
a 6 1 11
a 7 1 66
a 8 9 10
a 8 6 96
a 8 1 27
a 9 8 28
